proyfinal/src/viki/013/experimentInOfficeAgust.take6.output/c8c88d94-9480-41a8-96a4-99dab8fbc693.als.dat
{'cnf.clauses': '118081',
 'cnf.totvars': '69608',
 'conflict literals': '7',
 'conflicts': '6',
 'decisions': '655',
 'memused.mb': '15.95',
 'outcome': 'UNSAT',
 'propagations': '21393',
 'restarts': '1',
 'solver.msecs': 35,
 'task.msecs': 81}
