proyfinal/src/viki/013/experimentInOfficeAgust.take6.output/c8c88d94-9480-41a8-96a4-99dab8fbc693.als.out
Reading from standard input... Use '--help' for help.
============================[ Problem Statistics ]=============================
|                                                                             |
|  Number of variables:         69608                                         |
|  Number of clauses:          118081                                         |
|  Parse time:                   0.03 s                                       |
|                                                                             |
============================[ Search Statistics ]==============================
| Conflicts |          ORIGINAL         |          LEARNT          | Progress |
|           |    Vars  Clauses Literals |    Limit  Clauses Lit/Cl |          |
===============================================================================
===============================================================================
restarts              : 1
conflicts             : 6              (171 /sec)
decisions             : 655            (0.00 % random) (18634 /sec)
propagations          : 21393          (608620 /sec)
conflict literals     : 7              (0.00 % deleted)
Memory used           : 15.95 MB
CPU time              : 0.03515 s

UNSATISFIABLE
